# time	e_zz	fp_zz	gss	stress_zz
0	0	0	0	0
2	0.0202	1.01737	63.6444	173.656
4	0.0408	1.03718	66.1099	182.429
6	0.0618	1.05704	68.2579	187.757
8	0.0832	1.07691	70.143	192.386
10	0.105	1.09679	71.8107	196.459
12	0.1272	1.11667	73.297	200.064
14	0.1498	1.13656	74.6302	203.271
16	0.1728	1.15645	75.8333	206.135
18	0.1962	1.17635	76.9249	208.705
20	0.22	1.19624	77.92	211.021
